#######################
Slurm job id: 17497813_220
Running on machine: p45
Running cmd: /nfs/shared/static-builds/gurobi1202 SOFTMEMLIMIT=125 MIPFocus=3 Presolve=1 TimeLimit=500 seed=19 /nfs/models/miplib2010/k16x240.mps.bz2
#######################
Set parameter TimeLimit to value 500
Set parameter SoftMemLimit to value 125
Set parameter MIPFocus to value 3
Set parameter LogFile to value 1202-MIPFocus3-Presolve1-TimeLimit500-k16x240-9.log
Set parameter Presolve to value 1
Set parameter Seed to value 19
Using license file /opt/gurobi/gurobi.lic

Gurobi Optimizer version 12.0.2 build v12.0.2rc0 (linux64 - "Ubuntu 22.04.4 LTS")
Copyright (c) 2025, Gurobi Optimization, LLC

Read MPS format model from file /nfs/models/miplib2010/k16x240.mps.bz2
Reading time = 0.00 seconds
k16x240: 256 rows, 480 columns, 960 nonzeros

Using Gurobi shared library /nfs/shared/static-builds/gurobi1202

CPU model: Intel(R) Xeon(R) E-2388G CPU @ 3.20GHz, instruction set [SSE2|AVX|AVX2|AVX512]
Thread count: 8 physical cores, 16 logical processors, using up to 16 threads

Non-default parameters:
TimeLimit  500
SoftMemLimit  125
MIPFocus  3
Presolve  1
Seed  19

Optimize a model with 256 rows, 480 columns and 960 nonzeros
Model fingerprint: 0x4e80885f
Variable types: 240 continuous, 240 integer (240 binary)
Coefficient statistics:
  Matrix range     [1e+00, 1e+03]
  Objective range  [1e+00, 1e+03]
  Bounds range     [1e+00, 1e+03]
  RHS range        [4e+00, 4e+02]
Found heuristic solution: objective 17517.000000
Presolve time: 0.00s
Presolved: 256 rows, 480 columns, 960 nonzeros
Variable types: 240 continuous, 240 integer (240 binary)

Root relaxation: objective 2.769838e+03, 51 iterations, 0.00 seconds (0.00 work units)

    Nodes    |    Current Node    |     Objective Bounds      |     Work
 Expl Unexpl |  Obj  Depth IntInf | Incumbent    BestBd   Gap | It/Node Time

     0     0 2769.83800    0   14 17517.0000 2769.83800  84.2%     -    0s
H    0     0                    11359.000000 2769.83800  75.6%     -    0s
H    0     0                    11195.000000 2769.83800  75.3%     -    0s
H    0     0                    11088.000000 2769.83800  75.0%     -    0s
H    0     0                    11074.000000 8116.87580  26.7%     -    0s
H    0     0                    10916.000000 8116.87580  25.6%     -    0s
     0     0 8116.87580    0   26 10916.0000 8116.87580  25.6%     -    0s
H    0     0                    10838.000000 8182.85928  24.5%     -    0s
H    0     0                    10836.000000 8182.85928  24.5%     -    0s
H    0     0                    10826.000000 8182.85928  24.4%     -    0s
H    0     0                    10806.000000 8182.85928  24.3%     -    0s
     0     0 8738.72045    0   24 10806.0000 8738.72045  19.1%     -    0s
     0     0 9005.96027    0   31 10806.0000 9005.96027  16.7%     -    0s
     0     0 9006.18103    0   32 10806.0000 9006.18103  16.7%     -    0s
     0     0 9006.18103    0   33 10806.0000 9006.18103  16.7%     -    0s
     0     0 9126.63783    0   38 10806.0000 9126.63783  15.5%     -    0s
     0     0 9145.61865    0   28 10806.0000 9145.61865  15.4%     -    0s
H    0     0                    10792.000000 9145.61865  15.3%     -    0s
H    0     0                    10711.000000 9145.61865  14.6%     -    0s
     0     0 9237.07143    0   30 10711.0000 9237.07143  13.8%     -    0s
     0     0 9305.93639    0   36 10711.0000 9305.93639  13.1%     -    0s
     0     0 9332.61892    0   36 10711.0000 9332.61892  12.9%     -    0s
H    0     0                    10681.000000 9332.61892  12.6%     -    0s
     0     2 9332.61892    0   36 10681.0000 9332.61892  12.6%     -    0s
H  317   367                    10674.000000 9517.43910  10.8%  49.9    0s
  5902  3701 10344.7168   33   14 10674.0000 10313.4603  3.38%  80.9    5s
 24847  9111 10632.7275   29   14 10674.0000 10543.4051  1.22%  54.2   10s

Cutting planes:
  Lift-and-project: 4
  Cover: 3
  Implied bound: 9
  Dual implied bound: 4
  MIR: 129
  Flow cover: 518
  Flow path: 45
  Zero half: 24
  Network: 25
  Relax-and-lift: 2

Explored 42998 nodes (1665397 simplex iterations) in 11.82 seconds (15.51 work units)
Thread count was 16 (of 16 available processors)

Solution count 10: 10674 10681 10711 ... 11074

Optimal solution found (tolerance 1.00e-04)
Best objective 1.067400000000e+04, best bound 1.067300000000e+04, gap 0.0094%
